5775.0
0 1 0 0 0 1 0 0 1 1 0 0 1 0 1 0 1 0 0 0 0 0 0 1 0 1 0 0 1 0 
25 1 1 1 1 1 1 1 4 4 4 4 4 7 7 7 7 7 7 7 7 7 9 9 9 9 9 12 12 14 12 14 12 14 14 14 16 16 16 16 16 16 20 20 20 20 20 20 23 20 23 20 1 23 23 23 23 25 25 25 25 25 25 25 28 28 28 25 28 28 